&CONTROL
   calculation      = 'scf'
   verbosity        = 'high'
   tstress          = .false.
   tprnfor          = .true.
   outdir           = './tmp/'
   prefix           = 'scf'
   pseudo_dir       = './tmp/scf.save/'
/
&SYSTEM
   ibrav            = 2
   nbnd             = 32
   ecutwfc          = 60
   nosym            = .false.
   noinv            = .false.
   ntyp             = 1
   nat              = 16
   celldm(1)        = 20.524391127487448
/
&ELECTRONS
   electron_maxstep = 1000
   conv_thr         = 1e-13
   mixing_mode      = 'plain'
   mixing_beta      = 0.7
/
&IONS
/
&CELL
/

ATOMIC_SPECIES
Si 28.0855 Si.upf

K_POINTS automatic
1 1 1  0 0 0

ATOMIC_POSITIONS crystal
Si 0.0000689040 -0.0000000000 -0.0000000000 
Si 0.5000000000 0.0000000000 0.0000000000 
Si 0.0000000000 0.5000000000 -0.0000000000 
Si 0.5000000000 0.5000000000 -0.0000000000 
Si -0.0000000000 0.0000000000 0.5000000000 
Si 0.5000000000 0.0000000000 0.5000000000 
Si -0.0000000000 0.5000000000 0.5000000000 
Si 0.5000000000 0.5000000000 0.5000000000 
Si 0.3750000000 0.3750000000 0.3750000000 
Si 0.8750000000 0.3750000000 0.3750000000 
Si 0.3750000000 0.8750000000 0.3750000000 
Si 0.8750000000 0.8750000000 0.3750000000 
Si 0.3750000000 0.3750000000 0.8750000000 
Si 0.8750000000 0.3750000000 0.8750000000 
Si 0.3750000000 0.8750000000 0.8750000000 
Si 0.8750000000 0.8750000000 0.8750000000 

